p cnf 26 217
-25 -23 -22 -21 -26 0
-14 11 -15 -12 13 0
10 9 -8 6 -7 0
-10 -9 7 -6 8 0
-25 -22 26 -23 -24 0
19 -17 -18 16 20 0
21 -22 24 -25 23 0
24 4 11 -7 -19 0
-17 19 -20 16 -18 0
19 -18 17 16 20 0
24 15 6 -18 -3 0
-2 4 -1 3 -5 0
26 21 -23 -24 25 0
-8 -7 -10 6 -9 0
-4 -1 5 3 -2 0
14 -13 11 -12 15 0
11 -12 -13 14 -15 0
2 4 3 -5 1 0
-4 -1 -3 -2 5 0
-11 12 -15 -13 -14 0
14 13 12 11 -15 0
-22 -23 25 26 24 0
15 12 11 -13 -14 0
-15 -12 14 -13 -11 0
-12 -14 15 11 -13 0
8 7 6 9 10 0
-17 -16 20 19 18 0
21 -23 22 26 -24 0
-22 26 -21 23 24 0
-16 -20 -19 17 18 0
-14 -15 11 12 13 0
13 -11 14 12 15 0
-20 -18 -19 -16 -17 0
-19 20 17 -16 18 0
9 -24 -1 14 -17 0
7 -8 10 9 6 0
10 -6 -9 8 -7 0
-15 13 12 14 -11 0
13 15 -14 12 -11 0
-3 -4 1 -5 2 0
26 11 9 -2 -18 0
-18 -11 -3 7 26 0
22 18 14 7 5 0
7 -10 -9 6 -8 0
12 13 -11 -14 -15 0
-23 -22 26 21 -24 0
9 6 8 7 -10 0
5 18 -9 13 -24 0
1 2 -3 -4 5 0
-11 14 15 -13 -12 0
14 13 11 -12 -15 0
6 10 -9 7 -8 0
-13 -14 11 -15 -12 0
10 6 7 8 -9 0
26 -24 -21 23 -22 0
-1 -3 -4 2 5 0
14 -13 -15 12 -11 0
5 2 -1 -3 4 0
26 22 -24 -21 -25 0
2 -10 -19 22 -11 0
15 13 11 -14 -12 0
-18 17 -19 20 -16 0
13 -11 -14 15 -12 0
-7 -9 -10 8 -6 0
11 -13 14 12 15 0
-21 -24 25 23 26 0
-22 3 -7 13 18 0
5 4 3 2 1 0
-16 17 19 -20 -18 0
20 -17 18 16 -19 0
2 -4 3 5 1 0
-23 -21 25 22 -24 0
22 21 -26 25 -23 0
6 8 -10 7 -9 0
25 23 21 22 26 0
24 23 25 -26 22 0
-10 -7 -6 9 8 0
14 12 -13 -15 11 0
16 17 -20 -18 -19 0
24 -25 -23 -21 26 0
24 -26 -22 23 -21 0
11 12 14 15 13 0
-5 -3 -1 4 -2 0
-21 -23 -25 24 22 0
4 -3 -5 2 1 0
15 -11 -14 -13 -12 0
-6 4 -22 -11 -16 0
-17 19 16 18 20 0
26 24 -21 23 -25 0
-22 21 -23 26 24 0
-24 22 -25 26 23 0
-19 16 -18 -20 -17 0
3 4 5 2 -1 0
17 20 -19 16 18 0
-18 -20 19 -16 -17 0
9 -6 7 8 10 0
-4 -1 5 2 3 0
-25 21 23 -22 26 0
-12 -15 -13 -14 -11 0
-23 26 -25 21 -24 0
16 18 17 20 19 0
-10 -8 6 9 7 0
12 11 13 15 -14 0
3 1 -2 5 -4 0
15 13 14 -12 -11 0
-16 18 -20 17 19 0
-2 6 13 17 25 0
-11 12 14 15 -13 0
-18 -19 -16 17 -20 0
18 20 17 -16 19 0
-12 13 11 15 14 0
-7 9 -8 6 -10 0
-3 -4 5 -2 1 0
-19 17 -20 16 18 0
-5 -4 3 -2 -1 0
5 4 1 2 -3 0
17 19 -20 16 18 0
-2 3 1 5 4 0
21 25 22 23 -24 0
-4 2 3 -5 -1 0
-9 -7 -8 10 -6 0
25 -24 21 -26 22 0
-7 -9 -10 -6 -8 0
19 20 17 -16 -18 0
18 20 -19 -16 -17 0
-2 1 4 -5 3 0
-9 -8 6 10 -7 0
8 6 -9 10 -7 0
-19 16 18 -17 -20 0
-26 -22 23 21 -24 0
-10 -8 -6 -9 7 0
24 25 21 -23 26 0
-11 -14 -12 -15 13 0
21 -25 26 -22 24 0
-22 -23 -21 -24 25 0
21 24 22 -23 25 0
-26 22 23 -21 25 0
-8 7 -6 -10 9 0
-22 23 21 25 -26 0
-26 -25 -22 23 24 0
-9 7 10 -6 -8 0
-22 -23 24 -21 26 0
-22 21 25 24 -26 0
24 -22 -21 25 23 0
-23 26 -22 -24 -21 0
6 8 -9 -10 -7 0
10 -6 -7 9 8 0
-26 21 22 24 23 0
4 -1 2 -3 -5 0
-5 -20 -13 22 -10 0
-8 24 5 -15 -19 0
-10 -7 -8 9 -6 0
7 25 -17 -11 5 0
26 -22 23 -21 25 0
-25 -26 -22 -23 24 0
-19 3 -7 -22 11 0
21 14 -20 6 2 0
24 25 -26 21 -23 0
-23 22 -26 24 21 0
-4 2 -5 -1 -3 0
7 9 10 -6 -8 0
-24 22 23 -21 -25 0
-24 23 -21 -26 -25 0
5 -18 -26 -13 9 0
3 2 -5 -1 4 0
21 -23 22 26 24 0
23 -24 25 26 21 0
-9 -3 -19 26 -12 0
18 8 14 -1 -23 0
-14 12 11 -13 -15 0
-7 -10 6 9 8 0
-1 15 -16 -8 22 0
4 -2 -1 5 3 0
26 -24 -23 25 -21 0
-26 -25 24 -22 -21 0
26 23 -25 24 -22 0
-9 5 -22 16 -11 0
3 20 -13 -21 -6 0
-3 -2 -5 -4 -1 0
22 -21 -26 -25 23 0
21 -3 -11 -9 17 0
1 -2 -3 -4 -5 0
-16 -2 25 12 10 0
20 -18 16 -17 -19 0
25 -23 -24 26 -22 0
25 -24 -23 22 26 0
16 -18 17 20 -19 0
-25 -24 21 -23 -26 0
-25 -23 22 -21 -24 0
24 -25 22 21 26 0
6 -18 21 12 -2 0
-13 12 -14 15 -11 0
23 26 21 -24 -22 0
-24 26 21 22 -25 0
-23 -18 11 5 8 0
5 1 -2 4 -3 0
-23 -26 -22 -21 24 0
-12 -20 -24 -2 8 0
22 -23 26 25 24 0
-26 22 -23 -21 -25 0
18 -16 -17 -20 19 0
-5 3 1 2 -4 0
-25 -23 -24 26 -21 0
22 -3 -11 19 -7 0
26 25 23 21 -22 0
21 25 -26 -22 -23 0
-24 26 -21 22 25 0
1 26 -8 -14 19 0
-20 9 21 -3 13 0
-7 -12 20 -4 -24 0
8 6 10 -7 9 0
-5 -2 1 4 -3 0
26 -20 2 -13 -10 0
8 -10 9 -6 7 0
-9 -6 7 8 10 0
21 -24 -26 25 23 0
-25 22 -21 26 23 0
